************************************************************************
file with basedata            : md330_.bas
initial value random generator: 1721760359
************************************************************************
projects                      :  1
jobs (incl. supersource/sink ):  22
horizon                       :  144
RESOURCES
  - renewable                 :  2   R
  - nonrenewable              :  2   N
  - doubly constrained        :  0   D
************************************************************************
PROJECT INFORMATION:
pronr.  #jobs rel.date duedate tardcost  MPM-Time
    1     20      0       18       16       18
************************************************************************
PRECEDENCE RELATIONS:
jobnr.    #modes  #successors   successors
   1        1          3           2   3   4
   2        3          3           8  11  17
   3        3          3           5   6  11
   4        3          1           6
   5        3          3           7   9  15
   6        3          3           7  13  15
   7        3          2           8  18
   8        3          3          10  12  16
   9        3          2          13  18
  10        3          1          14
  11        3          2          14  20
  12        3          1          19
  13        3          3          14  20  21
  14        3          1          19
  15        3          2          17  18
  16        3          1          19
  17        3          1          21
  18        3          2          20  21
  19        3          1          22
  20        3          1          22
  21        3          1          22
  22        1          0        
************************************************************************
REQUESTS/DURATIONS:
jobnr. mode duration  R 1  R 2  N 1  N 2
------------------------------------------------------------------------
  1      1     0       0    0    0    0
  2      1     1       5    0    0    5
         2     6       0    7    0    4
         3     7       0    4    6    0
  3      1     3       9    0    7    0
         2     5       0    2    5    0
         3     7       9    0    0    5
  4      1     1       7    0    0    7
         2     5       0    4    9    0
         3     9       0    1    9    0
  5      1     3       0    2    0   10
         2     8       0    1    5    0
         3     9       6    0    0    3
  6      1     2       3    0    0    8
         2     2       0    7    2    0
         3     3       3    0    0    7
  7      1     3       0    6    6    0
         2     7       0    5    3    0
         3    10       0    3    0    8
  8      1     2       0   10    0    4
         2     5      10    0    0    4
         3     6       0    9    0    4
  9      1     1       9    0    7    0
         2     8       7    0    4    0
         3     9       3    0    2    0
 10      1     4       0    6    0    8
         2     6       0    5    1    0
         3     9       0    2    0    5
 11      1     2       9    0    6    0
         2     9       9    0    4    0
         3    10       9    0    0    1
 12      1     3       8    0    0    7
         2     4       8    0    6    0
         3     5       7    0    0    7
 13      1     1       7    0    0    4
         2     3       7    0    1    0
         3     3       7    0    0    1
 14      1     1       5    0    0    8
         2     2       0    7    0    6
         3     2       5    0    0    2
 15      1     1       0    7    5    0
         2     4       3    0    1    0
         3     4       2    0    2    0
 16      1     4       0    6   10    0
         2     5       9    0   10    0
         3    10       0    5    0    4
 17      1     3       0    5    4    0
         2     3       0    6    0    7
         3     7       1    0    0    7
 18      1     7       0    8   10    0
         2    10       2    0    0    8
         3    10       0    8    8    0
 19      1     2       8    0    6    0
         2     4       8    0    0    9
         3     8       0    5    6    0
 20      1     1       0    7    8    0
         2     1       6    0    0    6
         3    10       5    0    0    6
 21      1     2       0    7   10    0
         2     3       3    0   10    0
         3     6       0    6    0    9
 22      1     0       0    0    0    0
************************************************************************
RESOURCEAVAILABILITIES:
  R 1  R 2  N 1  N 2
   15   14   56   62
************************************************************************
MAXIMAL LAGS:
from  to  type  delay
    1   22   ES      0
    1    2   ES      0
    2   22   ES      0
    1    3   ES      0
    3   22   ES      0
    1    4   ES      0
    4   22   ES      0
    1    5   ES      0
    5   22   ES      0
    1    6   ES      0
    6   22   ES      0
    1    7   ES      0
    7   22   ES      0
    1    8   ES      0
    8   22   ES      0
    1    9   ES      0
    9   22   ES      0
    1   10   ES      0
   10   22   ES      0
    1   11   ES      0
   11   22   ES      0
    1   12   ES      0
   12   22   ES      0
    1   13   ES      0
   13   22   ES      0
    1   14   ES      0
   14   22   ES      0
    1   15   ES      0
   15   22   ES      0
    1   16   ES      0
   16   22   ES      0
    1   17   ES      0
   17   22   ES      0
    1   18   ES      0
   18   22   ES      0
    1   19   ES      0
   19   22   ES      0
    1   20   ES      0
   20   22   ES      0
    1   21   ES      0
   21   22   ES      0
    1   22   ES      0
    2    8   SS      5
    2    8   SE      1
    2    8   ES    -10
    2    8   EE     -5
    2   11   SS     -9
    2   11   SE      2
    2   11   ES     -9
    2   11   EE      8
    2   17   SS     -8
    2   17   SE      3
    2   17   ES     10
    2   17   EE     -3
    3    5   SS      4
    3    5   SE     10
    3    5   ES     -4
    3    5   EE      1
    3    6   SS      3
    3    6   SE      3
    3    6   ES     -5
    3    6   EE      2
    3   11   SS      5
    3   11   SE     -8
   11    3   SE      0
    3   11   ES      0
    3   11   EE     -6
    4    6   SS      7
    4    6   SE      4
    4    6   ES     11
    4    6   EE     -8
    5    7   SS    -10
    5    7   SE     -4
    5    7   ES     12
    5    7   EE      1
    5    9   SS     -2
    5    9   SE      4
    5    9   ES     -4
    5    9   EE    -12
    5   15   SS     -3
    5   15   SE     11
    5   15   ES     -3
    5   15   EE      6
    6    7   SS      6
    6    7   SE      9
    6    7   ES      3
    6    7   EE     -8
    6   13   SS      2
    6   13   SE      5
    6   13   ES      3
    6   13   EE     -1
    6   15   SS     -2
    6   15   SE      5
    6   15   ES     12
    6   15   EE      5
    7    8   SS      0
    7    8   SE      2
    7    8   ES     -2
    7    8   EE     -6
    7   18   SS     10
    7   18   SE     -5
    7   18   ES      6
    7   18   EE      0
    8   10   SS     -5
    8   10   SE     12
    8   10   ES      1
    8   10   EE    -11
    8   12   SS     -2
    8   12   SE     11
    8   12   ES      3
    8   12   EE     10
    8   16   SS      0
    8   16   SE      0
    8   16   ES      9
    8   16   EE      8
    9   13   SS     -8
    9   13   SE      3
    9   13   ES    -11
    9   13   EE     -8
    9   18   SS      4
    9   18   SE      6
    9   18   ES     -2
    9   18   EE     -9
   10   14   SS      2
   10   14   SE     -9
   10   14   ES      4
   10   14   EE      2
   11   14   SS    -12
   11   14   SE     11
   11   14   ES     -8
   11   14   EE      1
   11   20   SS      8
   11   20   SE     -8
   11   20   ES    -10
   11   20   EE      3
   12   19   SS     -4
   12   19   SE     -2
   12   19   ES      7
   12   19   EE     10
   13   14   SS      0
   13   14   SE      8
   13   14   ES    -10
   13   14   EE     -2
   13   20   SS      9
   13   20   SE      5
   13   20   ES      0
   13   20   EE     -2
   13   21   SS      8
   13   21   SE     10
   13   21   ES     12
   13   21   EE      3
   14   19   SS      5
   14   19   SE    -11
   14   19   ES      7
   14   19   EE    -10
   15   17   SS     -5
   15   17   SE      8
   15   17   ES      9
   15   17   EE     -3
   15   18   SS     -5
   15   18   SE     11
   15   18   ES    -10
   15   18   EE      1
   16   19   SS     -9
   16   19   SE     12
   16   19   ES      8
   16   19   EE     10
   17   21   SS     -9
   17   21   SE      2
   17   21   ES     -7
   17   21   EE     10
   18   20   SS     -3
   18   20   SE    -12
   18   20   ES    -11
   18   20   EE     -2
   18   21   SS    -11
   18   21   SE     -3
   18   21   ES     -1
   18   21   EE     -1
************************************************************************
